0 16 10 3 13 39 20 14 7 22 36 16 23 50 25
16 0 47 44 29 42 32 32 36 12 49 7 24 4 38
10 47 0 24 10 33 44 10 38 31 50 6 12 2 11
3 44 24 0 6 17 48 11 49 30 34 15 26 40 1
13 29 10 6 0 32 15 3 41 19 32 14 36 9 28
39 42 33 17 32 0 1 2 46 14 38 14 41 37 12
20 32 44 48 15 1 0 17 12 6 25 1 31 29 38
14 32 10 11 3 2 17 0 27 26 22 13 49 50 42
7 36 38 49 41 46 12 27 0 24 47 2 5 43 10
22 12 31 30 19 14 6 26 24 0 14 47 20 25 18
36 49 50 34 32 38 25 22 47 14 0 15 26 8 2
16 7 6 15 14 14 1 13 2 47 15 0 18 38 31
23 24 12 26 36 41 31 49 5 20 26 18 0 14 11
50 4 2 40 9 37 29 50 43 25 8 38 14 0 4
25 38 11 1 28 12 38 42 10 18 2 31 11 4 0
